(set-info :source  loris-7.ddns.comp.nus.edu.sg/~project/hip/) 
;Variables declarations
(declare-fun v_int_40_3522_primed () Int)
(declare-fun v_int_40_3523_primed () Int)
(declare-fun lm () Int)
(declare-fun l () Int)
(declare-fun rl_primed () Int)
(declare-fun rr_primed () Int)
(declare-fun ln () Int)
(declare-fun v_primed () Int)
(declare-fun ln_4365 () Int)
(declare-fun rlm () Int)
(declare-fun rl () Int)
(declare-fun flted_33_4366 () Int)
(declare-fun rrm () Int)
(declare-fun rr () Int)
(declare-fun n () Int)
(declare-fun m () Int)
(declare-fun l_primed () Int)
;Relations declarations
;Axioms assertions
;Antecedent
(assert (= v_int_40_3522_primed 1))
(assert (<= 0 n))
(assert (<= 0 m))
(assert (= v_int_40_3523_primed n))
(assert (<= 0 ln))
(assert (<= 0 lm))
(assert (= n ln))
(assert (= m lm))
(assert (= l_primed l))
(assert (= rl_primed rl))
(assert (= rr_primed rr))
(assert (= flted_33_4366 (+ 1 ln)))
(assert (= ln_4365 ln))
(assert (= v_primed 10))
(assert (or (and (and (< rl 1) (= rlm 0)) (= ln_4365 0)) (and (and (<= 1 ln_4365) (<= 1 rlm)) (> rl 0))))
(assert (or (and (and (< rr 1) (= rrm 0)) (= flted_33_4366 0)) (and (and (<= 1 flted_33_4366) (<= 1 rrm)) (> rr 0))))
(assert (or (and (and (< l_primed 1) (= m 0)) (= n 0)) (and (and (<= 1 n) (<= 1 m)) (> l_primed 0))))
;Negation of Consequence
(assert (not false))
(check-sat)